*<meta creator='lp_solve v5.5'>
*<meta rows=90>
*<meta columns=70>
*<meta equalities=33>
*<meta integers=70>
*<meta origsense='MAX'>
*
NAME          SRSCHED 
ROWS
 N  Obj     
 L  r1_001  
 L  r1_002  
 L  r1_003  
 L  r1_004  
 L  r1_005  
 L  r1_006  
 L  r1_007  
 L  r1_008  
 L  r1_009  
 L  r1_010  
 G  r2_001  
 G  r2_002  
 G  r2_003  
 G  r2_004  
 G  r2_005  
 G  r2_006  
 G  r2_007  
 G  r2_008  
 G  r2_009  
 G  r2_010  
 G  r2_011  
 G  r2_012  
 G  r2_013  
 G  r2_014  
 G  r2_015  
 G  r2_016  
 G  r2_017  
 G  r2_018  
 G  r2_019  
 G  r2_020  
 G  r2_021  
 G  r2_022  
 G  r2_023  
 G  r2_024  
 G  r2_025  
 G  r2_026  
 G  r2_027  
 G  r2_028  
 G  r2_029  
 G  r2_030  
 G  r2_031  
 G  r2_032  
 G  r2_033  
 G  r2_034  
 G  r2_035  
 G  r2_036  
 G  r2_037  
 G  r2_038  
 G  r2_039  
 G  r2_040  
 E  r3_001  
 E  r3_002  
 E  r3_003  
 E  r3_004  
 E  r3_005  
 E  r3_006  
 E  r3_007  
 E  r3_008  
 E  r3_009  
 E  r3_010  
 E  r3_011  
 E  r3_012  
 E  r3_013  
 E  r3_014  
 E  r3_015  
 E  r3_016  
 E  r3_017  
 E  r3_018  
 E  r3_019  
 E  r3_020  
 E  r4_001  
 E  r4_002  
 E  r4_003  
 E  r4_004  
 E  r4_005  
 L  r5_001  
 L  r5_002  
 L  r6_001  
 L  r6_002  
 L  r6_003  
 L  r6_004  
 L  r6_005  
 E  r7_001  
 E  r7_002  
 E  r7_003  
 E  r7_004  
 E  r7_005  
 E  r7_006  
 E  r7_007  
 E  r7_008  
COLUMNS
    MARK0000  'MARKER'                 'INTORG'
    x_t1p1s1  r1_001    -1.000000000   r2_001    -1.000000000
    x_t1p1s1  r3_001    -1.000000000   r7_001    1.0000000000
    x_t1p1s2  r1_002    -1.000000000   r2_002    -1.000000000
    x_t1p1s2  r3_001    -1.000000000   r7_002    1.0000000000
    x_t1p2s1  r1_001    -1.000000000   r2_003    -1.000000000
    x_t1p2s1  r3_002    -1.000000000   r7_003    1.0000000000
    x_t1p2s2  r1_002    -1.000000000   r2_004    -1.000000000
    x_t1p2s2  r3_002    -1.000000000   r7_004    1.0000000000
    x_t1p3s1  r1_001    -1.000000000   r2_005    -1.000000000
    x_t1p3s1  r3_003    -1.000000000   r7_005    1.0000000000
    x_t1p3s2  r1_002    -1.000000000   r2_006    -1.000000000
    x_t1p3s2  r3_003    -1.000000000   r7_006    1.0000000000
    x_t1p4s1  r1_001    -1.000000000   r2_007    -1.000000000
    x_t1p4s1  r3_004    -1.000000000   r7_007    1.0000000000
    x_t1p4s2  r1_002    -1.000000000   r2_008    -1.000000000
    x_t1p4s2  r3_004    -1.000000000   r7_008    1.0000000000
    x_t2p1s1  r1_003    -1.000000000   r2_009    -1.000000000
    x_t2p1s1  r3_005    -1.000000000   r7_001    1.0000000000
    x_t2p1s2  r1_004    -1.000000000   r2_010    -1.000000000
    x_t2p1s2  r3_005    -1.000000000   r7_002    1.0000000000
    x_t2p2s1  r1_003    -1.000000000   r2_011    -1.000000000
    x_t2p2s1  r3_006    -1.000000000   r7_003    1.0000000000
    x_t2p2s2  r1_004    -1.000000000   r2_012    -1.000000000
    x_t2p2s2  r3_006    -1.000000000   r7_004    1.0000000000
    x_t2p3s1  r1_003    -1.000000000   r2_013    -1.000000000
    x_t2p3s1  r3_007    -1.000000000   r7_005    1.0000000000
    x_t2p3s2  r1_004    -1.000000000   r2_014    -1.000000000
    x_t2p3s2  r3_007    -1.000000000   r7_006    1.0000000000
    x_t2p4s1  r1_003    -1.000000000   r2_015    -1.000000000
    x_t2p4s1  r3_008    -1.000000000   r7_007    1.0000000000
    x_t2p4s2  r1_004    -1.000000000   r2_016    -1.000000000
    x_t2p4s2  r3_008    -1.000000000   r7_008    1.0000000000
    x_t3p1s1  r1_005    -1.000000000   r2_017    -1.000000000
    x_t3p1s1  r3_009    -1.000000000   r7_001    1.0000000000
    x_t3p1s2  r1_006    -1.000000000   r2_018    -1.000000000
    x_t3p1s2  r3_009    -1.000000000   r7_002    1.0000000000
    x_t3p2s1  r1_005    -1.000000000   r2_019    -1.000000000
    x_t3p2s1  r3_010    -1.000000000   r7_003    1.0000000000
    x_t3p2s2  r1_006    -1.000000000   r2_020    -1.000000000
    x_t3p2s2  r3_010    -1.000000000   r7_004    1.0000000000
    x_t3p3s1  r1_005    -1.000000000   r2_021    -1.000000000
    x_t3p3s1  r3_011    -1.000000000   r7_005    1.0000000000
    x_t3p3s2  r1_006    -1.000000000   r2_022    -1.000000000
    x_t3p3s2  r3_011    -1.000000000   r7_006    1.0000000000
    x_t3p4s1  r1_005    -1.000000000   r2_023    -1.000000000
    x_t3p4s1  r3_012    -1.000000000   r7_007    1.0000000000
    x_t3p4s2  r1_006    -1.000000000   r2_024    -1.000000000
    x_t3p4s2  r3_012    -1.000000000   r7_008    1.0000000000
    x_t4p1s1  r1_007    -1.000000000   r2_025    -1.000000000
    x_t4p1s1  r3_013    -1.000000000   r7_001    1.0000000000
    x_t4p1s2  r1_008    -1.000000000   r2_026    -1.000000000
    x_t4p1s2  r3_013    -1.000000000   r7_002    1.0000000000
    x_t4p2s1  r1_007    -1.000000000   r2_027    -1.000000000
    x_t4p2s1  r3_014    -1.000000000   r7_003    1.0000000000
    x_t4p2s2  r1_008    -1.000000000   r2_028    -1.000000000
    x_t4p2s2  r3_014    -1.000000000   r7_004    1.0000000000
    x_t4p3s1  r1_007    -1.000000000   r2_029    -1.000000000
    x_t4p3s1  r3_015    -1.000000000   r7_005    1.0000000000
    x_t4p3s2  r1_008    -1.000000000   r2_030    -1.000000000
    x_t4p3s2  r3_015    -1.000000000   r7_006    1.0000000000
    x_t4p4s1  r1_007    -1.000000000   r2_031    -1.000000000
    x_t4p4s1  r3_016    -1.000000000   r7_007    1.0000000000
    x_t4p4s2  r1_008    -1.000000000   r2_032    -1.000000000
    x_t4p4s2  r3_016    -1.000000000   r7_008    1.0000000000
    x_t5p1s1  r1_009    -1.000000000   r2_033    -1.000000000
    x_t5p1s1  r3_017    -1.000000000   r7_001    1.0000000000
    x_t5p1s2  r1_010    -1.000000000   r2_034    -1.000000000
    x_t5p1s2  r3_017    -1.000000000   r7_002    1.0000000000
    x_t5p2s1  r1_009    -1.000000000   r2_035    -1.000000000
    x_t5p2s1  r3_018    -1.000000000   r7_003    1.0000000000
    x_t5p2s2  r1_010    -1.000000000   r2_036    -1.000000000
    x_t5p2s2  r3_018    -1.000000000   r7_004    1.0000000000
    x_t5p3s1  r1_009    -1.000000000   r2_037    -1.000000000
    x_t5p3s1  r3_019    -1.000000000   r7_005    1.0000000000
    x_t5p3s2  r1_010    -1.000000000   r2_038    -1.000000000
    x_t5p3s2  r3_019    -1.000000000   r7_006    1.0000000000
    x_t5p4s1  r1_009    -1.000000000   r2_039    -1.000000000
    x_t5p4s1  r3_020    -1.000000000   r7_007    1.0000000000
    x_t5p4s2  r1_010    -1.000000000   r2_040    -1.000000000
    x_t5p4s2  r3_020    -1.000000000   r7_008    1.0000000000
    xtp_t1p1  Obj       -1.000000000   r3_001    1.0000000000
    xtp_t1p1  r6_001    1.0000000000
    xtp_t1p2  r3_002    1.0000000000   r6_001    1.0000000000
    xtp_t1p3  r3_003    1.0000000000   r6_001    1.0000000000
    xtp_t1p4  r3_004    1.0000000000   r6_001    1.0000000000
    xtp_t2p1  r3_005    1.0000000000   r6_002    1.0000000000
    xtp_t2p2  Obj       -1.000000000   r3_006    1.0000000000
    xtp_t2p2  r6_002    1.0000000000
    xtp_t2p3  r3_007    1.0000000000   r6_002    1.0000000000
    xtp_t2p4  r3_008    1.0000000000   r6_002    1.0000000000
    xtp_t3p1  Obj       -2.000000000   r3_009    1.0000000000
    xtp_t3p1  r6_003    1.0000000000
    xtp_t3p2  Obj       -2.000000000   r3_010    1.0000000000
    xtp_t3p2  r6_003    1.0000000000
    xtp_t3p3  Obj       -1.000000000   r3_011    1.0000000000
    xtp_t3p3  r6_003    1.0000000000
    xtp_t3p4  r3_012    1.0000000000   r6_003    1.0000000000
    xtp_t4p1  r3_013    1.0000000000   r6_004    1.0000000000
    xtp_t4p2  r3_014    1.0000000000   r6_004    1.0000000000
    xtp_t4p3  Obj       -2.000000000   r3_015    1.0000000000
    xtp_t4p3  r6_004    1.0000000000
    xtp_t4p4  Obj       -1.000000000   r3_016    1.0000000000
    xtp_t4p4  r6_004    1.0000000000
    xtp_t5p1  r3_017    1.0000000000   r6_005    1.0000000000
    xtp_t5p2  r3_018    1.0000000000   r6_005    1.0000000000
    xtp_t5p3  r3_019    1.0000000000   r6_005    1.0000000000
    xtp_t5p4  Obj       -2.000000000   r3_020    1.0000000000
    xtp_t5p4  r6_005    1.0000000000
    xts_t1s1  r1_001    1.0000000000   r2_001    1.0000000000
    xts_t1s1  r2_003    1.0000000000   r2_005    1.0000000000
    xts_t1s1  r2_007    1.0000000000   r4_001    1.0000000000
    xts_t1s1  r5_001    1.0000000000
    xts_t1s2  r1_002    1.0000000000   r2_002    1.0000000000
    xts_t1s2  r2_004    1.0000000000   r2_006    1.0000000000
    xts_t1s2  r2_008    1.0000000000   r4_001    1.0000000000
    xts_t1s2  r5_002    1.0000000000
    xts_t2s1  r1_003    1.0000000000   r2_009    1.0000000000
    xts_t2s1  r2_011    1.0000000000   r2_013    1.0000000000
    xts_t2s1  r2_015    1.0000000000   r4_002    1.0000000000
    xts_t2s1  r5_001    1.0000000000
    xts_t2s2  r1_004    1.0000000000   r2_010    1.0000000000
    xts_t2s2  r2_012    1.0000000000   r2_014    1.0000000000
    xts_t2s2  r2_016    1.0000000000   r4_002    1.0000000000
    xts_t2s2  r5_002    1.0000000000
    xts_t3s1  r1_005    1.0000000000   r2_017    1.0000000000
    xts_t3s1  r2_019    1.0000000000   r2_021    1.0000000000
    xts_t3s1  r2_023    1.0000000000   r4_003    1.0000000000
    xts_t3s1  r5_001    1.0000000000
    xts_t3s2  r1_006    1.0000000000   r2_018    1.0000000000
    xts_t3s2  r2_020    1.0000000000   r2_022    1.0000000000
    xts_t3s2  r2_024    1.0000000000   r4_003    1.0000000000
    xts_t3s2  r5_002    1.0000000000
    xts_t4s1  r1_007    1.0000000000   r2_025    1.0000000000
    xts_t4s1  r2_027    1.0000000000   r2_029    1.0000000000
    xts_t4s1  r2_031    1.0000000000   r4_004    1.0000000000
    xts_t4s1  r5_001    1.0000000000
    xts_t4s2  r1_008    1.0000000000   r2_026    1.0000000000
    xts_t4s2  r2_028    1.0000000000   r2_030    1.0000000000
    xts_t4s2  r2_032    1.0000000000   r4_004    1.0000000000
    xts_t4s2  r5_002    1.0000000000
    xts_t5s1  r1_009    1.0000000000   r2_033    1.0000000000
    xts_t5s1  r2_035    1.0000000000   r2_037    1.0000000000
    xts_t5s1  r2_039    1.0000000000   r4_005    1.0000000000
    xts_t5s1  r5_001    1.0000000000
    xts_t5s2  r1_010    1.0000000000   r2_034    1.0000000000
    xts_t5s2  r2_036    1.0000000000   r2_038    1.0000000000
    xts_t5s2  r2_040    1.0000000000   r4_005    1.0000000000
    xts_t5s2  r5_002    1.0000000000
    MARK0001  'MARKER'                 'INTEND'
RHS
    RHS       r4_001    1.0000000000   r4_002    1.0000000000
    RHS       r4_003    1.0000000000   r4_004    1.0000000000
    RHS       r4_005    1.0000000000   r5_001    5.0000000000
    RHS       r5_002    5.0000000000   r6_001    4.0000000000
    RHS       r6_002    4.0000000000   r6_003    4.0000000000
    RHS       r6_004    4.0000000000   r6_005    4.0000000000
    RHS       r7_001    1.0000000000   r7_002    1.0000000000
    RHS       r7_003    1.0000000000   r7_004    1.0000000000
    RHS       r7_005    1.0000000000   r7_006    1.0000000000
    RHS       r7_007    1.0000000000   r7_008    1.0000000000
BOUNDS
 BV BND       x_t1p1s1
 BV BND       x_t1p1s2
 BV BND       x_t1p2s1
 BV BND       x_t1p2s2
 BV BND       x_t1p3s1
 BV BND       x_t1p3s2
 BV BND       x_t1p4s1
 BV BND       x_t1p4s2
 BV BND       x_t2p1s1
 BV BND       x_t2p1s2
 BV BND       x_t2p2s1
 BV BND       x_t2p2s2
 BV BND       x_t2p3s1
 BV BND       x_t2p3s2
 BV BND       x_t2p4s1
 BV BND       x_t2p4s2
 BV BND       x_t3p1s1
 BV BND       x_t3p1s2
 BV BND       x_t3p2s1
 BV BND       x_t3p2s2
 BV BND       x_t3p3s1
 BV BND       x_t3p3s2
 BV BND       x_t3p4s1
 BV BND       x_t3p4s2
 BV BND       x_t4p1s1
 BV BND       x_t4p1s2
 BV BND       x_t4p2s1
 BV BND       x_t4p2s2
 BV BND       x_t4p3s1
 BV BND       x_t4p3s2
 BV BND       x_t4p4s1
 BV BND       x_t4p4s2
 BV BND       x_t5p1s1
 BV BND       x_t5p1s2
 BV BND       x_t5p2s1
 BV BND       x_t5p2s2
 BV BND       x_t5p3s1
 BV BND       x_t5p3s2
 BV BND       x_t5p4s1
 BV BND       x_t5p4s2
 BV BND       xtp_t1p1
 BV BND       xtp_t1p2
 BV BND       xtp_t1p3
 BV BND       xtp_t1p4
 BV BND       xtp_t2p1
 BV BND       xtp_t2p2
 BV BND       xtp_t2p3
 BV BND       xtp_t2p4
 BV BND       xtp_t3p1
 BV BND       xtp_t3p2
 BV BND       xtp_t3p3
 BV BND       xtp_t3p4
 BV BND       xtp_t4p1
 BV BND       xtp_t4p2
 BV BND       xtp_t4p3
 BV BND       xtp_t4p4
 BV BND       xtp_t5p1
 BV BND       xtp_t5p2
 BV BND       xtp_t5p3
 BV BND       xtp_t5p4
 BV BND       xts_t1s1
 BV BND       xts_t1s2
 BV BND       xts_t2s1
 BV BND       xts_t2s2
 BV BND       xts_t3s1
 BV BND       xts_t3s2
 BV BND       xts_t4s1
 BV BND       xts_t4s2
 BV BND       xts_t5s1
 BV BND       xts_t5s2
ENDATA
